p cnf 20 106
1 5 9 13 17 0
2 6 10 14 18 0
3 7 11 15 19 0
4 8 12 16 20 0
-1 -2 0
-1 -3 0
-1 -4 0
-2 -3 0
-2 -4 0
-3 -4 0
-5 -6 0
-5 -7 0
-5 -8 0
-6 -7 0
-6 -8 0
-7 -8 0
-9 -10 0
-9 -11 0
-9 -12 0
-10 -11 0
-10 -12 0
-11 -12 0
-13 -14 0
-13 -15 0
-13 -16 0
-14 -15 0
-14 -16 0
-15 -16 0
-17 -18 0
-17 -19 0
-17 -20 0
-18 -19 0
-18 -20 0
-19 -20 0
-1 -6 0
-1 -7 0
-1 -8 0
-2 -5 0
-2 -7 0
-2 -8 0
-3 -5 0
-3 -6 0
-3 -8 0
-4 -5 0
-4 -6 0
-4 -7 0
-1 -14 0
-1 -15 0
-1 -16 0
-2 -13 0
-2 -15 0
-2 -16 0
-3 -13 0
-3 -14 0
-3 -16 0
-4 -13 0
-4 -14 0
-4 -15 0
-5 -10 0
-5 -11 0
-5 -12 0
-6 -9 0
-6 -11 0
-6 -12 0
-7 -9 0
-7 -10 0
-7 -12 0
-8 -9 0
-8 -10 0
-8 -11 0
-5 -14 0
-5 -15 0
-5 -16 0
-6 -13 0
-6 -15 0
-6 -16 0
-7 -13 0
-7 -14 0
-7 -16 0
-8 -13 0
-8 -14 0
-8 -15 0
-5 -18 0
-5 -19 0
-5 -20 0
-6 -17 0
-6 -19 0
-6 -20 0
-7 -17 0
-7 -18 0
-7 -20 0
-8 -17 0
-8 -18 0
-8 -19 0
-9 -14 0
-9 -15 0
-9 -16 0
-10 -13 0
-10 -15 0
-10 -16 0
-11 -13 0
-11 -14 0
-11 -16 0
-12 -13 0
-12 -14 0
-12 -15 0
